
List of user-set options:

                                    Name   Value                used
                           compl_inf_tol = 1                     yes
                         constr_viol_tol = 1                     yes
                            dual_inf_tol = 1000                  yes
                           linear_solver = ma97                  yes
                              ma86_small = 1e-30                  no
                                  ma86_u = 0.0001                 no
                              ma97_order = best                  yes
                              ma97_small = 1e-30                 yes
                            ma97_switch1 = at_start              yes
                            ma97_switch2 = od_hd_reuse           yes
                                  ma97_u = 1e-06                 yes
                               ma97_umax = 0.5                   yes
                                max_iter = 1000                  yes
                    max_refinement_steps = 20                    yes
                    min_refinement_steps = 5                     yes
                                 mu_init = 1e-06                 yes
           mu_superlinear_decrease_power = 1.25                  yes
                   nlp_scaling_min_value = 1e-08                 yes
                        option_file_name = Preset_Case_458_pf.opt  yes
                             output_file = ./tmp/Preset_Case_458_pf.output  yes
                      print_user_options = yes                   yes
        required_infeasibility_reduction = 1                      no
                                     tol = 1e-08                 yes
                   warm_start_bound_frac = 1e-20                 yes
                   warm_start_bound_push = 1e-20                 yes
                   warm_start_init_point = yes                   yes
              warm_start_mult_bound_push = 1e-20                 yes
                warm_start_mult_init_max = 1e+40                 yes
             warm_start_slack_bound_frac = 1e-20                 yes
             warm_start_slack_bound_push = 1e-20                 yes

******************************************************************************
This program contains Ipopt, a library for large-scale nonlinear optimization.
 Ipopt is released as open source code under the Eclipse Public License (EPL).
         For more information visit http://projects.coin-or.org/Ipopt
******************************************************************************

This is Ipopt version 3.12.10, running with linear solver ma97.

Number of nonzeros in equality constraint Jacobian...:   123442
Number of nonzeros in inequality constraint Jacobian.:      213
Number of nonzeros in Lagrangian Hessian.............:    49069

Total number of variables............................:    31591
                     variables with only lower bounds:    12912
                variables with lower and upper bounds:    15130
                     variables with only upper bounds:        0
Total number of equality constraints.................:    31483
Total number of inequality constraints...............:       25
        inequality constraints with only lower bounds:        4
   inequality constraints with lower and upper bounds:        0
        inequality constraints with only upper bounds:       21

iter    objective    inf_pr   inf_du lg(mu)  ||d||  lg(rg) alpha_du alpha_pr  ls
   0 -5.4293237e+00 4.04e-03 1.02e+00  -6.0 0.00e+00    -  0.00e+00 0.00e+00   0
   1 -5.4288062e+00 6.25e-02 1.02e+00  -6.0 3.58e+05    -  8.97e-05 7.85e-05h  5
   2 -5.4307636e+00 6.24e-02 3.79e+01  -6.0 5.02e+03    -  1.68e-01 1.93e-03h  1
   3 -5.6617202e+00 2.15e+00 7.48e+02  -6.0 5.01e+03    -  1.19e-01 2.29e-01f  1
   4 -5.8686733e+00 6.80e+00 1.25e+03  -6.0 3.42e+03    -  4.89e-01 3.08e-01h  1
   5 -5.9398543e+00 7.32e+00 1.38e+03  -6.0 3.35e+03    -  1.77e-02 2.78e-01h  1
   6 -5.9911003e+00 9.09e+00 1.30e+03  -6.0 1.87e+03    -  1.02e-01 3.44e-01f  1
   7 -5.9565254e+00 8.14e-02 4.64e+06  -6.0 1.06e+01  -4.0 3.85e-01 1.00e+00h  1
   8 -5.9595493e+00 2.17e-02 3.33e+05  -6.0 6.27e+00  -4.5 2.37e-01 7.46e-01h  1
   9 -6.0110128e+00 5.16e+00 1.62e+06  -6.0 3.31e+03    -  1.93e-04 1.77e-01f  1
iter    objective    inf_pr   inf_du lg(mu)  ||d||  lg(rg) alpha_du alpha_pr  ls
  10 -6.0401053e+00 3.58e+00 1.95e+06  -6.0 1.45e+02  -5.0 4.79e-04 3.06e-01h  1
  11 -6.0559996e+00 5.42e+01 2.02e+06  -6.0 9.27e+03    -  1.02e-02 1.87e-01h  1
  12 -6.0554754e+00 5.15e+01 2.02e+06  -6.0 1.10e+01  -3.6 9.98e-03 4.93e-02h  1
  13 -6.0472338e+00 3.80e+01 1.98e+06  -6.0 7.66e+00  -3.2 4.93e-02 2.62e-01h  1
  14 -6.0470354e+00 3.70e+01 1.94e+06  -6.0 7.01e+01  -3.7 2.09e-02 2.68e-02h  1
  15 -6.0423131e+00 1.18e+01 2.06e+06  -6.0 6.62e+01  -4.2 2.19e-02 6.81e-01h  1
  16 -6.0400962e+00 9.65e+00 1.91e+06  -6.0 5.46e+00  -2.8 6.75e-02 1.83e-01h  1
  17 -6.0297104e+00 1.81e-03 2.69e+05  -6.0 1.43e+00  -3.3 8.54e-01 1.00e+00h  1
  18 -6.0300514e+00 1.83e-03 8.16e+04  -6.0 1.15e+00  -3.8 7.05e-01 6.22e-01h  1
  19 -6.0310575e+00 6.38e-03 7.63e+03  -6.0 2.71e+00  -4.3 9.76e-01 4.52e-01f  1
iter    objective    inf_pr   inf_du lg(mu)  ||d||  lg(rg) alpha_du alpha_pr  ls
  20 -6.0353439e+00 9.38e-02 3.74e+01  -6.0 5.14e+00  -4.7 7.51e-01 1.00e+00f  1
  21 -6.0356907e+00 8.56e-02 3.39e+01  -6.0 1.41e+01  -5.2 1.00e+00 9.22e-02h  1
  22 -6.0371448e+00 7.17e-02 2.79e+01  -6.0 3.72e+01  -5.7 1.00e+00 1.81e-01h  1
  23 -6.0504460e+00 9.61e-02 8.76e+00  -6.0 8.10e+01  -6.2 1.00e+00 8.82e-01h  1
  24 -6.0727364e+00 6.34e+01 2.90e+01  -6.0 4.14e+03    -  2.24e-04 4.27e-01h  1
  25 -6.0664180e+00 3.13e+01 7.96e+01  -6.0 4.68e+02    -  2.19e-01 5.29e-01h  1
  26 -6.0663075e+00 2.80e+01 3.41e+04  -6.0 7.02e+01  -6.6 7.69e-05 1.05e-01h  1
  27 -6.0683399e+00 3.05e-01 8.10e+01  -6.0 8.55e+01  -6.2 7.23e-01 1.00e+00f  1
  28 -6.0728571e+00 1.66e-01 8.78e+01  -6.0 8.62e+01  -6.7 7.39e-01 1.00e+00h  1
  29 -6.0848344e+00 1.51e+00 7.27e+02  -6.0 2.35e+02  -7.2 4.76e-01 1.00e+00h  1
iter    objective    inf_pr   inf_du lg(mu)  ||d||  lg(rg) alpha_du alpha_pr  ls
  30 -6.0898615e+00 1.41e+00 6.72e+02  -6.0 2.24e+03    -  7.52e-02 6.38e-02h  1
  31 -6.1000819e+00 2.16e+00 2.61e+03  -6.0 1.01e+03    -  8.42e-01 1.00e+00h  1
  32 -6.1005914e+00 1.77e-01 5.84e+02  -6.0 7.70e+01  -6.7 1.00e+00 1.00e+00h  1
  33 -6.1088557e+00 1.38e+00 2.10e+01  -6.0 2.35e+02  -7.2 8.40e-01 9.13e-01h  1
  34 -6.1282899e+00 4.23e+00 4.34e+02  -6.0 9.29e+02    -  1.00e+00 1.00e+00h  1
  35 -6.1303963e+00 3.19e+00 2.45e+04  -6.0 2.06e+02    -  4.49e-01 2.44e-01h  1
  36 -6.1373481e+00 9.19e-01 4.67e+04  -6.0 2.04e+02    -  1.00e+00 7.09e-01h  1
  37 -6.1400719e+00 7.68e-01 5.25e+05  -6.0 1.04e+03    -  6.51e-02 2.02e-01h  1
  38 -6.1400930e+00 7.68e-01 5.28e+05  -6.0 1.65e+03    -  1.02e-01 1.73e-04h  1
  39 -6.1556920e+00 7.80e+00 5.41e+05  -6.0 1.06e+03    -  3.66e-01 6.50e-01f  1
iter    objective    inf_pr   inf_du lg(mu)  ||d||  lg(rg) alpha_du alpha_pr  ls
  40 -6.1421387e+00 6.32e+00 6.30e+05  -6.0 4.78e+02    -  8.31e-04 1.97e-01h  2
  41 -6.1603123e+00 6.00e+00 4.81e+05  -6.0 1.21e+03    -  7.81e-02 5.16e-02h  1
  42 -6.1655406e+00 4.85e+00 5.79e+04  -6.0 4.13e+02    -  3.46e-01 1.93e-01h  1
  43 -6.1655911e+00 4.81e+00 5.55e+05  -6.0 7.23e+02    -  3.25e-02 8.74e-03h  1
  44 -6.1692726e+00 2.81e+00 1.79e+08  -6.0 3.59e+02    -  3.41e-03 4.32e-01h  1
  45 -6.1695584e+00 2.64e+00 1.69e+08  -6.0 2.71e+02    -  4.48e-02 5.99e-02h  1
  46 -6.1634092e+00 1.56e+00 7.15e+06  -6.0 3.14e+02    -  1.01e-01 9.59e-01h  1
  47 -6.1766563e+00 6.75e-01 3.09e+06  -6.0 3.89e+01  -5.0 5.71e-01 5.69e-01h  1
  48 -6.1766561e+00 6.74e-01 3.08e+06  -6.0 8.64e+01    -  1.00e+00 1.21e-03h  1
  49 -6.1748482e+00 8.05e-02 3.65e+03  -6.0 4.41e+01    -  1.00e+00 1.00e+00h  1
iter    objective    inf_pr   inf_du lg(mu)  ||d||  lg(rg) alpha_du alpha_pr  ls
  50 -6.1702762e+00 4.20e-02 7.71e+03  -6.0 7.33e+01    -  1.00e+00 8.38e-01H  1
  51 -6.1634789e+00 4.24e-02 1.20e+07  -6.0 1.40e+02    -  1.00e-03 1.00e+00H  1
  52 -6.1654245e+00 1.32e-02 8.59e+03  -6.0 1.69e+02    -  1.00e+00 1.00e+00H  1
  53 -6.1654383e+00 1.26e-04 8.67e+00  -6.0 8.51e+00    -  1.00e+00 1.00e+00h  1
  54 -6.1654365e+00 1.28e-05 5.61e-03  -6.0 5.59e-01    -  1.00e+00 1.00e+00h  1
  55 -6.1654364e+00 2.88e-10 4.54e-08  -6.0 2.34e-03    -  1.00e+00 1.00e+00h  1
  56 -6.1655147e+00 1.35e-01 4.81e+01  -7.5 1.14e+02    -  9.50e-01 7.84e-01h  1
  57 -6.1655148e+00 2.74e-02 1.05e+01  -7.5 2.54e+01    -  1.00e+00 8.56e-01h  1
  58 -6.1655137e+00 1.98e-04 4.38e-03  -7.5 3.39e+00    -  1.00e+00 1.00e+00h  1
  59 -6.1655137e+00 6.80e-10 8.96e-10  -7.5 6.55e-03    -  1.00e+00 1.00e+00h  1
iter    objective    inf_pr   inf_du lg(mu)  ||d||  lg(rg) alpha_du alpha_pr  ls
  60 -6.1655151e+00 1.62e-04 7.12e-01  -9.0 3.65e+00    -  9.24e-01 8.46e-01h  1
  61 -6.1655154e+00 5.35e-06 3.25e-01  -9.0 5.61e-01    -  9.19e-01 1.00e+00f  1
  62 -6.1655154e+00 2.84e-10 4.41e-09  -9.0 1.35e-04    -  1.00e+00 1.00e+00h  1

Number of Iterations....: 62

                                   (scaled)                 (unscaled)
Objective...............:  -4.8168088772951885e+00   -6.1655153629378416e+00
Dual infeasibility......:   4.4120299921211408e-09    5.6473983899150599e-09
Constraint violation....:   2.8385066129163472e-10    2.8385066129163472e-10
Complementarity.........:   1.3211362898989333e-09    1.6910544510706346e-09
Overall NLP error.......:   4.4120299921211408e-09    5.6473983899150599e-09


Number of objective function evaluations             = 74
Number of objective gradient evaluations             = 63
Number of equality constraint evaluations            = 74
Number of inequality constraint evaluations          = 74
Number of equality constraint Jacobian evaluations   = 63
Number of inequality constraint Jacobian evaluations = 63
Number of Lagrangian Hessian evaluations             = 62
Total CPU secs in IPOPT (w/o function evaluations)   =    148.404
Total CPU secs in NLP function evaluations           =      2.370

EXIT: Optimal Solution Found.
